&control
    calculation = 'md'
    restart_mode = 'restart',
    prefix = 'AlN',
    nstep = 120,
    dt = 150,
    tstress = .true.,
    tprnfor = .true.,
    wf_collect = .true.,
    pseudo_dir = '/work/home8/loose/aln/wurz/md/333cell/pseudo',
    outdir='.'
/
&system    
    ibrav = 0, 
    celldm(1) = 5.90978704749766, 
    nat = 108, 
    ntyp = 2,
    nosym = .true.,
    ecutwfc = 50.0, 
/
&electrons
    diagonalization='david'
    mixing_mode = 'plain'
    mixing_beta = 0.7 
    conv_thr =  1.0d-8
/
&ions
    pot_extrapolation='second-order'
    wfc_extrapolation='second-order'
    tempw = 300.0,
    ion_temperature = 'rescaling',
/
CELL_PARAMETERS
    3.          0.          0.        
   -1.5         2.59807621  0.        
    0.          0.          4.8       
ATOMIC_SPECIES
    Al 26.981538 Al.PBE.fhi.UPF
    N 14.00674 N.PBE.fhi.UPF
ATOMIC_POSITIONS alat
    Al  0.          0.57735027  0.        
    Al  0.          0.57735027  1.6       
    Al  0.          0.57735027  3.2       
    Al -0.5         1.44337567  0.        
    Al -0.5         1.44337567  1.6       
    Al -0.5         1.44337567  3.2       
    Al -1.          2.30940108  0.        
    Al -1.          2.30940108  1.6       
    Al -1.          2.30940108  3.2       
    Al  1.          0.57735027  0.        
    Al  1.          0.57735027  1.6       
    Al  1.          0.57735027  3.2       
    Al  0.5         1.44337567  0.        
    Al  0.5         1.44337567  1.6       
    Al  0.5         1.44337567  3.2       
    Al  0.          2.30940108  0.        
    Al  0.          2.30940108  1.6       
    Al  0.          2.30940108  3.2       
    Al  2.          0.57735027  0.        
    Al  2.          0.57735027  1.6       
    Al  2.          0.57735027  3.2       
    Al  1.5         1.44337567  0.        
    Al  1.5         1.44337567  1.6       
    Al  1.5         1.44337567  3.2       
    Al  1.          2.30940108  0.        
    Al  1.          2.30940108  1.6       
    Al  1.          2.30940108  3.2       
    Al  0.5         0.28867513  0.8       
    Al  0.5         0.28867513  2.4       
    Al  0.5         0.28867513  4.        
    Al  0.          1.15470054  0.8       
    Al  0.          1.15470054  2.4       
    Al  0.          1.15470054  4.        
    Al -0.5         2.02072594  0.8       
    Al -0.5         2.02072594  2.4       
    Al -0.5         2.02072594  4.        
    Al  1.5         0.28867513  0.8       
    Al  1.5         0.28867513  2.4       
    Al  1.5         0.28867513  4.        
    Al  1.          1.15470054  0.8       
    Al  1.          1.15470054  2.4       
    Al  1.          1.15470054  4.        
    Al  0.5         2.02072594  0.8       
    Al  0.5         2.02072594  2.4       
    Al  0.5         2.02072594  4.        
    Al  2.5         0.28867513  0.8       
    Al  2.5         0.28867513  2.4       
    Al  2.5         0.28867513  4.        
    Al  2.          1.15470054  0.8       
    Al  2.          1.15470054  2.4       
    Al  2.          1.15470054  4.        
    Al  1.5         2.02072594  0.8       
    Al  1.5         2.02072594  2.4       
    Al  1.5         2.02072594  4.        
    N  0.          0.57735027  0.6112    
    N  0.          0.57735027  2.2112    
    N  0.          0.57735027  3.8112    
    N -0.5         1.44337567  0.6112    
    N -0.5         1.44337567  2.2112    
    N -0.5         1.44337567  3.8112    
    N -1.          2.30940108  0.6112    
    N -1.          2.30940108  2.2112    
    N -1.          2.30940108  3.8112    
    N  1.          0.57735027  0.6112    
    N  1.          0.57735027  2.2112    
    N  1.          0.57735027  3.8112    
    N  0.5         1.44337567  0.6112    
    N  0.5         1.44337567  2.2112    
    N  0.5         1.44337567  3.8112    
    N  0.          2.30940108  0.6112    
    N  0.          2.30940108  2.2112    
    N  0.          2.30940108  3.8112    
    N  2.          0.57735027  0.6112    
    N  2.          0.57735027  2.2112    
    N  2.          0.57735027  3.8112    
    N  1.5         1.44337567  0.6112    
    N  1.5         1.44337567  2.2112    
    N  1.5         1.44337567  3.8112    
    N  1.          2.30940108  0.6112    
    N  1.          2.30940108  2.2112    
    N  1.          2.30940108  3.8112    
    N  0.5         0.28867513  1.4112    
    N  0.5         0.28867513  3.0112    
    N  0.5         0.28867513  4.6112    
    N  0.          1.15470054  1.4112    
    N  0.          1.15470054  3.0112    
    N  0.          1.15470054  4.6112    
    N -0.5         2.02072594  1.4112    
    N -0.5         2.02072594  3.0112    
    N -0.5         2.02072594  4.6112    
    N  1.5         0.28867513  1.4112    
    N  1.5         0.28867513  3.0112    
    N  1.5         0.28867513  4.6112    
    N  1.          1.15470054  1.4112    
    N  1.          1.15470054  3.0112    
    N  1.          1.15470054  4.6112    
    N  0.5         2.02072594  1.4112    
    N  0.5         2.02072594  3.0112    
    N  0.5         2.02072594  4.6112    
    N  2.5         0.28867513  1.4112    
    N  2.5         0.28867513  3.0112    
    N  2.5         0.28867513  4.6112    
    N  2.          1.15470054  1.4112    
    N  2.          1.15470054  3.0112    
    N  2.          1.15470054  4.6112    
    N  1.5         2.02072594  1.4112    
    N  1.5         2.02072594  3.0112    
    N  1.5         2.02072594  4.6112    
K_POINTS automatic
    2 2 2 0 0 0    
