&control
    calculation  = 'scf',
    restart_mode = 'from_scratch',
    prefix       = 'Si',
    nstep        =  250,
    tstress      = .true.,
    tprnfor      = .true.,
    pseudo_dir   = '~/soft/espresso/pseudo_espresso',
    outdir       = '/tmp/' ,
/
&system    
    ibrav     = 0,
    A = 10,
    nat       = 2,
    ntyp      = 1,
    ecutwfc   = 25, 
    ecutrho   = 250, 
/
&electrons
    diagonalization = 'david'
    mixing_mode     = 'plain'
    mixing_beta     = 0.7 
    conv_thr        = 1.0d-8
    electron_maxstep = 200
/
CELL_PARAMETERS
1 0 0
0 1 0
0 0 0.78
ATOMIC_SPECIES
    Si  28.0855     Si.pbe-n-van.UPF
    U   238         U.no-working-PP.UPF
ATOMIC_POSITIONS crystal
    Si 0.0      0.0     0.0
    Si 0.25     0.25    0.25
    U  -0.3     0.5     0.999
K_POINTS automatic
2 2 2 0 0 0 
