 &CONTROL
                       title = CaCl2F1-2 ,
                 calculation = 'md' ,
                restart_mode = 'from_scratch' ,
                      outdir = '/local/scratch/tpstudent/birnbaum/' ,
                  pseudo_dir = '/home/tpstudent/birnbaum/pseudo/' ,
                      prefix = 'bir_Caf1-2' ,
                       nstep = 10000,
                     tstress = .true. ,
                     tprnfor = .true. ,
                          dt = 20 ,
		  wf_collect = .true. ,
 /
 &SYSTEM
                       ibrav = 1,
                   celldm(1) = 13.2208,
                         nat = 30,
                        ntyp = 4,
                     ecutwfc = 75 ,
                     ecutrho = 750 ,
                 occupations = 'smearing' ,
                     degauss = 0.005 ,
                    smearing = 'gaussian' ,
 /
 &ELECTRONS
            electron_maxstep = 200,
                    conv_thr = 1.0d-6 ,
                 mixing_mode = 'local-TF' ,
                 mixing_beta = 0.2 ,
             diagonalization = 'david' ,
 /
 &IONS
           pot_extrapolation = 'second_order' ,
           wfc_extrapolation = 'second_order' ,
	   ion_temperature = 'rescaling',
	   tempw = 300,
 /
ATOMIC_SPECIES
    H    1.00794  H.pbe-van_ak.UPF
    O   15.99940  O.pbe-van_ak.UPF
   Ca   40.08000  Ca.pbe-nsp-van.UPF
   Cl   35.45300  Cl.pbe-n-van.UPF
ATOMIC_POSITIONS angstrom
    H      6.379000000    0.757000000    6.559000000
    O      5.896000000    0.814000000    5.742000000
    H      4.969000000    0.780000000    5.951000000
    H      1.919000000    6.151000000    1.170000000
    O      1.435000000    6.208000000    0.353000000
    H      0.509000000    6.174000000    0.563000000
    H      6.394000000    6.344000000    6.242000000
    O      5.911000000    6.400000000    5.425000000
    H      4.984000000    6.367000000    5.634000000
    H      6.314000000    0.615000000    1.499000000
    O      5.830000000    0.672000000    0.682000000
    H      4.903000000    0.638000000    0.891000000
    H      6.194000000    6.238000000    1.259000000
    O      5.711000000    6.295000000    0.442000000
    H      4.784000000    6.261000000    0.652000000
    H      1.976000000    6.252000000    6.088000000
    O      1.492000000    6.309000000    5.271000000
    H      0.566000000    6.275000000    5.481000000
    H      6.500000000    2.608000000    6.133000000
    O      6.017000000    2.665000000    5.316000000
    H      5.090000000    2.631000000    5.525000000
    H      1.776000000    0.840000000    1.440000000
    O      1.293000000    0.896000000    0.623000000
    H      0.366000000    0.863000000    0.833000000
    H      1.744000000    0.715000000    5.616000000
    O      1.261000000    0.771000000    4.799000000
    H      0.334000000    0.738000000    5.009000000
   Ca      4.929000000    4.742000000    3.926000000
   Cl      3.047000000    1.316000000    2.373000000
   Cl      1.033000000    2.778000000    2.020000000
K_POINTS automatic
	2 2 2	0 0 0

